NAME: line_40_5
TYPE: TSP
COMMENT: line_40_5
DIMENSION: 40
EDGE_WEIGHT_TYPE: EUC_2D
NODE_COORD_SECTION
1 0.0 260.0
2 0.0 266.0
3 0.0 305.0
4 0.0 273.0
5 0.0 339.0
6 0.0 334.0
7 0.0 191.0
8 0.0 274.0
9 0.0 353.0
10 0.0 259.0
11 0.0 25.0
12 0.0 208.0
13 0.0 275.0
14 0.0 84.0
15 0.0 386.0
16 0.0 234.0
17 0.0 251.0
18 0.0 383.0
19 0.0 127.0
20 0.0 349.0
21 0.0 264.0
22 0.0 285.0
23 0.0 202.0
24 0.0 238.0
25 0.0 102.0
26 0.0 119.0
27 0.0 91.0
28 0.0 212.0
29 0.0 206.0
30 0.0 342.0
31 0.0 25.0
32 0.0 126.0
33 0.0 93.0
34 0.0 225.0
35 0.0 310.0
36 0.0 379.0
37 0.0 313.0
38 0.0 10.0
39 0.0 109.0
40 0.0 132.0
